c --- [ banner ] -------------------------------------------------------------
c 
c CaDiCaL SAT Solver
c Copyright (c) 2016-2025
c A. Biere, M. Fleury, N. Froleyks, K. Fazekas, F. Pollitt, T. Faller
c JKU Linz, University of Freiburg, TU Wien
c 
c Version 3.0.0 7b99c07f0bcab5824a5a3ce62c7066554017f641
c Apple clang version 21.0.0 (clang-2100.0.123.102) -Wall -Wextra -O3 -DNDEBUG -DNCLOSEFROM
c Thu Apr 23 22:35:47 PDT 2026 Darwin dada-mun-26.local 25.4.0 arm64
c 
c --- [ limit ] --------------------------------------------------------------
c 
c setting time limit to 180 seconds real time (due to '-t 180')
c 
c --- [ parsing input ] ------------------------------------------------------
c 
c reading DIMACS file from '/private/tmp/p97-ordinal-sharesFirstAtTarget.cnf'
c opening file to read '/private/tmp/p97-ordinal-sharesFirstAtTarget.cnf'
c found 'p cnf 58048 313821' header
c parsed 313821 clauses in 0.06 seconds process time
c 
c --- [ options ] ------------------------------------------------------------
c 
c   --compact=false                (different from default 'true')
c   --congruence=false             (different from default 'true')
c   --decompose=false              (different from default 'true')
c   --deduplicate=false            (different from default 'true')
c   --eagersubsume=false           (different from default 'true')
c   --elim=false                   (different from default 'true')
c   --factor=false                 (different from default 'true')
c   --factorunbump=false           (different from default 'true')
c   --fastelim=false               (different from default 'true')
c   --inprobing=false              (different from default 'true')
c   --inprocessing=false           (different from default 'true')
c   --preprocesslight=false        (different from default 'true')
c   --probe=false                  (different from default 'true')
c   --subsume=false                (different from default 'true')
c   --sweep=false                  (different from default 'true')
c   --ternary=false                (different from default 'true')
c   --transred=false               (different from default 'true')
c   --vivify=false                 (different from default 'true')
c 
c --- [ solving ] ------------------------------------------------------------
c 
c time measured in process time since initialization
c 
c  seconds  reduction conflicts       size tier2        variables
c         MB    restarts   redundant    glue  trail          remaining
c          level     rate       size/glu tier1  irredundant
c 
c *  0.06  0  0 0   0  0    0    0 0.0 0 0 2 6  0% 313029 57408 99%
c )  0.06  0  0 0   0  0    0    0 0.0 0 0 2 6  0% 313029 57408 99%
c {  0.06  0  0 0   0  0    0    0 0.0 0 0 2 6  0% 313029 57408 99%
c i  0.06  0  8 0   0  3    5    4 2.3 2 1 2 6  1% 313029 57406 99%
c i  0.06  0 10 0   0  3   10    7 2.3 2 1 2 6  2% 313029 57187 99%
c i  0.06  0 12 0   0  3   19   15 2.1 2 1 2 6  2% 313029 57060 98%
c i  0.06  0 59 0   0  6   69   63 1.9 2 1 2 6  6% 313029 57059 98%
c i  0.06  0 55 0   3  6   85   76 1.9 3 1 2 6  6% 313029 56888 98%
c i  0.06  0 56 0   6  9   96   85 1.9 3 2 2 6  6% 313029 56884 98%
c i  0.06  0 85 0   9 17  112  100 1.5 4 3 2 6  6% 313029 56883 98%
c i  0.07  0 154 0  30 33  192  168 1.5 5 3 2 6  8% 313029 56882 98%
c i  0.07  0 134 0  43 29  243  215 1.4 6 4 2 6  8% 313029 56881 98%
c i  0.07  0 133 0  44 29  244  215 1.4 6 4 2 6  8% 313029 56877 98%
c -  0.10  0 706 1  57 186  300  208 1.4 6 4 2 6 12% 307335 56877 98%
c i  0.11  0 619 1  71 163  352  252 1.4 7 5 2 6 13% 307335 56872 98%
c i  0.14  0 333 1  97 75  840  643 1.7 8 5 2 6 19% 307335 56871 98%
c -  0.17  0 308 2 110 69  944  637 1.7 8 5 2 6 19% 307292 56870 98%
c }  0.18  0 298 2 122 67 1001  680 1.7 8 5 2 6 19% 307292 56870 98%
c [  0.18  0  0 2 122  0 1001  680 0.0 0 0 2 6  0% 307292 56870 98%
c O  0.18  0 28 2 122 29 1002  681 1.1 15 14 2 6  6% 307292 56870 98%
c 
c  seconds  reduction conflicts       size   tier2        variables
c         MB    restarts   redundant     glue   trail          remaining
c          level     rate       size/glue  tier1  irredundant
c 
c ]  0.27  0 64 2 122  2 1428 1092 3.3 32 10 2 6 24% 307292 56870 98%
c {  0.27  0 298 2 122 67 1428 1092 1.7 8 5 2 6 19% 307292 56870 98%
c i  0.27  0 286 2 129 64 1483 1142 1.7 8 5 2 6 19% 307292 56869 98%
c i  0.33  0 237 2 199 51 1949 1529 1.7 8 5 2 6 20% 307292 56838 98%
c -  0.36  0 232 3 201 48 2086 1264 1.7 8 5 2 6 21% 307106 56838 98%
c O  0.45  0 192 3 282 36 3004 1995 1.7 9 5 2 6 22% 307106 56838 98%
c i  0.50  0 183 3 333 35 3315 2261 1.7 9 5 2 6 22% 307106 56837 98%
c -  0.57  0 173 4 377 32 3782 2118 1.8 9 5 2 6 23% 307097 56837 98%
c }  0.72  0 159 4 492 28 4867 3029 1.7 9 5 2 6 23% 307097 56837 98%
c [  0.72  0 64 4 492  2 4867 3029 3.3 32 10 2 6 24% 307097 56837 98%
c i  0.78  0 49 4 492  2 5408 3541 3.1 26 8 3 8 22% 307097 56836 98%
c I  0.83  0 60 4 493  3 6007 4072 2.9 24 8 3 8 24% 307097 56836 98%
c -  0.86  0 61 5 493  3 6069 3255 2.9 23 8 3 8 24% 307089 56836 98%
c i  0.90  0 64 5 493  3 6324 3481 2.8 23 8 3 8 24% 307089 56834 98%
c i  1.09  0 72 5 494  3 8385 5391 2.9 30 10 3 7 32% 307089 56831 98%
c ]  1.15  0 73 5 495  3 8845 5843 2.9 32 11 3 7 33% 307089 56831 98%
c {  1.15  0 159 5 495 28 8845 5843 1.7 9 5 2 6 23% 307089 56831 98%
c -  1.18  0 156 6 496 27 8965 4290 1.8 9 5 2 6 23% 307061 56831 98%
c i  1.23  0 153 6 531 27 9286 4576 1.8 9 5 2 3 23% 307061 56822 98%
c #  1.30  0 148 6 566 25 10008 5194 1.8 9 5 2 3 23% 307061 56822 98%
c 
c  seconds   reductions conflicts       size tier2        variables
c         MB     restarts    redundant    glue  trail          remaining
c           level     rate        size/glu tier1  irredundant
c 
c -  1.65  0 138 7 823 22 12485 4767 1.8 9 5 2 3 23% 307015 56822 98%
c i  1.93  0 128 7 1060 20 14976 6925 1.8 10 5 2 3 23% 307015 56820 98%
c B  1.94  0 128 7 1067 20 15009 6958 1.8 10 5 2 3 23% 307015 56819 98%
c -  2.15  0 126 8 1218 19 16638 6133 1.8 10 5 2 3 24% 307002 56819 98%
c }  2.18  0 125 8 1251 19 16894 6366 1.8 10 5 2 3 24% 307002 56819 98%
c [  2.18  0 73 8 1251  3 16894 6366 2.9 32 11 3 7 33% 307002 56819 98%
c B  2.57  0 82 8 1253  3 21012 10233 2.4 28 12 3 7 32% 307002 56819 98%
c -  2.64  0 81 9 1254  3 21433 7245 2.4 28 12 3 9 32% 307002 56819 98%
c ]  3.13  0 69 9 1254  2 25442 11103 2.3 31 13 3 9 28% 307002 56819 98%
c {  3.13  0 125 9 1254 19 25442 11103 1.8 10 5 2 3 24% 307002 56819 98%
c -  3.33  0 121 10 1450 19 26875 8101 1.8 10 6 2 3 24% 307002 56819 98%
c W  3.60  0 119 10 1546 18 28015 9083 1.8 10 6 2 3 23% 307002 56819 98%
c -  4.24  0 116 11 2048 17 32975 9943 1.8 10 6 2 3 24% 307002 56819 98%
c F  4.64  0 114 11 2381 17 36017 12697 1.8 10 6 2 3 24% 307002 56819 98%
c }  4.95  0 113 11 2615 16 38403 14813 1.8 10 6 1 2 24% 307002 56819 98%
c [  4.95  0 69 11 2615  2 38403 14813 2.3 31 13 3 9 28% 307002 56819 98%
c -  5.06  0 67 12 2617  2 39725 9067 2.3 30 13 3 9 27% 307002 56819 98%
c W  5.75  0 61 12 2621  2 45020 14110 2.5 31 12 3 9 26% 307002 56819 98%
c -  6.00  0 59 13 2622  2 47137 9194 2.4 31 13 3 9 26% 307002 56819 98%
c i  6.48  0 58 13 2622  2 50859 12802 2.4 32 13 3 9 27% 307002 56818 98%
c 
c  seconds  reductions   conflicts        size   tier2        variables
c         MB     restarts      redundant     glue   trail          remaining
c          level       rate         size/glue  tier1  irredundant
c 
c ]  6.84  0 56 13 2623  2 54004 15850 2.3 33 14 3 9 27% 307002 56818 98%
c {  6.84  0 113 13 2623 16 54004 15850 1.8 10 6 1 2 24% 307002 56818 98%
c B  6.96  0 111 13 2711 16 55022 16752 1.8 10 6 1 2 24% 307002 56818 98%
c -  7.02  0 111 14 2729 16 55209 9163 1.8 10 6 1 2 24% 306996 56818 98%
c i  7.31  0 110 14 2897 15 57663 11347 1.8 11 6 1 2 24% 306996 56817 98%
c -  8.12  0 107 15 3417 15 63944 10698 1.9 11 6 1 2 24% 306990 56817 98%
c W  8.50  0 107 15 3611 14 66023 12524 1.9 11 6 1 2 25% 306990 56817 98%
c -  9.55  0 105 16 4413 14 73344 12625 1.9 11 6 1 2 25% 306990 56817 98%
c }  9.76  0 104 16 4558 14 74931 14113 1.9 11 6 1 2 25% 306990 56817 98%
c [  9.76  0 56 16 4558  2 74931 14113 2.3 33 14 3 9 27% 306990 56817 98%
c O 10.18  0 57 16 4558  2 78026 17113 2.3 33 15 3 9 27% 306990 56817 98%
c - 10.98  0 55 17 4561  2 83411 13663 2.3 35 15 3 9 27% 306990 56817 98%
c B 12.08  0 57 17 4565  2 91027 20997 2.3 36 15 3 9 28% 306990 56817 98%
c ] 12.48  0 56 17 4566  2 94144 23975 2.3 36 16 3 9 27% 306990 56817 98%
c { 12.48  0 104 17 4566 14 94144 23975 1.9 11 6 1 2 25% 306990 56817 98%
c - 12.51  0 104 18 4568 14 94148 13722 1.9 11 6 1 2 25% 306990 56817 98%
c i 13.04  0 103 18 4973 14 98160 17379 1.9 11 6 1 2 25% 306990 56812 98%
c # 14.05  0 102 18 5696 14 105028 23596 1.9 11 6 1 2 25% 306990 56809 98%
c - 14.15  0 102 19 5749 14 105555 15653 1.9 11 6 1 2 25% 306944 56809 98%
c - 16.01  0 100 20 7171 14 117633 17874 1.9 12 6 1 2 25% 306944 56809 98%
c 
c  seconds   reductions   conflicts         size  tier2        variables
c         MB      restarts       redundant     glue  trail          remaining
c           level       rate          size/glue tier1  irredundant
c 
c B 16.37  0 100 20 7460 14 120029 20081 1.9 12 6 1 2 25% 306944 56809 98%
c } 16.46  0 100 20 7505 14 120662 20672 1.9 12 6 1 2 25% 306944 56809 98%
c [ 16.46  0 56 20 7505  2 120662 20672 2.3 36 16 3 9 27% 306944 56809 98%
c - 17.65  0 53 21 7511  2 130383 18955 2.2 36 16 3 9 27% 306944 56809 98%
c W 18.74  0 51 21 7512  2 136032 24478 2.2 37 17 3 9 26% 306944 56809 98%
c - 19.77  0 50 22 7513  2 143806 18586 2.2 37 17 3 13 26% 306944 56809 98%
c ] 20.61  0 49 22 7513  2 150626 25250 2.2 37 17 3 13 25% 306944 56809 98%
c { 20.61  0 100 22 7513 14 150626 25250 1.9 12 6 1 2 25% 306944 56809 98%
c i 20.62  0 100 22 7526 14 150689 25309 1.9 12 6 1 2 25% 306944 56808 98%
c i 20.95  0 99 22 7714 13 152997 27400 1.9 12 6 1 2 25% 306944 56806 98%
c W 21.07  0 99 22 7716 13 153033 27421 1.9 12 6 1 2 25% 306925 56805 98%
c - 21.90  0 99 23 8289 13 157905 19643 1.9 12 6 1 2 25% 306925 56805 98%
c F 23.94  0 96 23 9832 13 171034 31635 1.9 12 6 1 2 25% 306925 56805 98%
c - 24.28  0 96 24 10070 13 172677 22189 1.9 12 6 1 2 25% 306925 56805 98%
c } 26.28  0 95 24 11323 13 185200 33687 1.9 12 6 1 2 25% 306925 56805 98%
c [ 26.28  0 49 24 11323  2 185200 33687 2.2 37 17 3 13 25% 306925 56805 98%
c - 26.60  0 50 25 11323  2 188124 24377 2.2 37 17 3 13 25% 306925 56805 98%
c I 26.79  0 51 25 11323  2 190035 26217 2.2 36 17 3 13 25% 306925 56805 98%
c - 28.79  0 49 26 11330  2 204248 25191 2.2 37 17 2 7 25% 306925 56805 98%
c B 29.48  0 47 26 11334  2 210036 30774 2.3 37 16 2 7 24% 306925 56805 98%
c 
c  seconds  reductions    conflicts         size   tier2        variables
c         MB      restarts       redundant     glue   trail          remaining
c          level        rate          size/glue  tier1  irredundant
c 
c - 31.05  0 46 27 11338  2 221052 24701 2.2 37 17 2 7 24% 306925 56805 98%
c ] 31.64  0 46 27 11338  2 225580 29108 2.2 37 17 2 7 24% 306925 56805 98%
c { 31.64  0 95 27 11338 13 225580 29108 1.9 12 6 1 2 25% 306925 56805 98%
c i 32.07  0 95 27 11613 13 228547 31858 1.9 12 6 1 2 26% 306925 56804 98%
c B 32.47  0 95 27 11852 13 231037 34157 1.9 12 6 1 2 26% 306925 56804 98%
c - 33.65  0 94 28 12518 13 238530 26927 1.9 12 6 1 2 26% 306918 56804 98%
c W 36.50  0 93 28 14058 12 253039 40289 2.0 13 6 1 2 26% 306918 56804 98%
c - 37.14  0 93 29 14420 12 256685 29893 2.0 13 6 1 2 26% 306918 56804 98%
c i 39.24  0 92 29 15866 12 269098 41358 2.0 13 7 1 2 26% 306918 56803 98%
c } 39.68  0 92 29 16093 12 271789 43839 2.0 13 7 1 2 26% 306918 56803 98%
c [ 39.68  0 46 29 16093  2 271789 43839 2.2 37 17 2 7 24% 306918 56803 98%
c - 40.13  0 47 30 16096  2 275519 32302 2.2 37 17 2 7 24% 306912 56803 98%
c W 40.35  0 47 30 16096  2 276040 32815 2.2 37 17 2 7 24% 306912 56803 98%
c - 43.33  0 44 31 16107  2 295031 32581 2.2 38 17 2 7 24% 306912 56803 98%
c O 44.07  0 44 31 16108  2 300041 37449 2.2 38 17 2 7 24% 306912 56803 98%
c - 46.30  0 43 32 16109  2 315226 32031 2.3 39 17 2 7 24% 306912 56803 98%
c i 47.08  0 42 32 16109  2 321366 37986 2.3 39 17 2 7 24% 306912 56802 98%
c ] 47.15  0 42 32 16109  2 321870 38473 2.3 39 17 2 7 24% 306912 56802 98%
c { 47.15  0 92 32 16109 12 321870 38473 2.0 13 7 1 2 26% 306912 56802 98%
c # 47.70  0 92 32 16490 12 325042 41402 2.0 13 7 1 2 26% 306912 56802 98%
c 
c  seconds  reductions    conflicts         size  tier2        variables
c         MB      restarts       redundant     glue  trail          remaining
c          level        rate          size/glue tier1  irredundant
c 
c i 48.65  0 92 32 17099 12 330144 46115 1.9 13 7 1 2 26% 306912 56800 98%
c - 49.66  0 92 33 17677 12 336099 34265 2.0 13 7 1 2 26% 306893 56799 98%
c B 52.20  0 91 33 19235 12 351043 48108 2.0 13 7 1 2 26% 306893 56799 98%
c - 53.46  0 91 34 19912 12 357649 37229 2.0 13 7 1 2 26% 306893 56799 98%
c W 57.39  0 89 34 21808 12 378046 56189 2.0 13 7 1 2 26% 306893 56799 98%
c } 57.44  0 89 34 21828 12 378316 56431 2.0 13 7 1 2 26% 306893 56799 98%
c [ 57.44  0 42 34 21828  2 378316 56431 2.3 39 17 2 7 24% 306893 56799 98%
c - 57.63  0 44 35 21829  2 379880 40217 2.3 39 17 2 7 24% 306893 56799 98%
c - 60.62  0 43 36 21829  2 402792 41217 2.3 39 17 2 7 23% 306893 56799 98%
c B 61.01  0 43 36 21829  2 406047 44392 2.3 39 17 2 7 23% 306893 56799 98%
c - 63.70  0 45 37 21837  2 426385 40499 2.2 39 18 2 7 23% 306893 56799 98%
c W 65.23  0 45 37 21843  2 435048 48958 2.2 39 18 2 7 23% 306893 56799 98%
c ] 66.91  0 45 37 21845  2 447231 60816 2.2 40 18 2 7 24% 306893 56799 98%
c { 66.91  0 89 37 21845 12 447231 60816 2.0 13 7 1 2 26% 306893 56799 98%
c - 67.45  0 89 38 22110 12 450658 41556 2.0 13 7 1 2 26% 306893 56799 98%
c F 69.75  0 88 38 23498 11 465052 54900 2.0 14 7 1 2 26% 306893 56799 98%
c - 71.82  0 88 39 24674 11 475612 44855 2.0 14 7 1 2 26% 306893 56799 98%
c B 74.96  0 86 39 26426 11 496054 63867 2.0 14 7 1 2 26% 306893 56799 98%
c - 75.92  0 86 40 26912 11 501249 48415 2.0 14 7 1 2 26% 306893 56799 98%
c } 79.41  0 86 40 28583 11 519123 65046 2.0 14 7 1 2 27% 306893 56799 98%
c 
c  seconds  reductions    conflicts         size   tier2        variables
c         MB      restarts       redundant     glue   trail          remaining
c          level        rate          size/glue  tier1  irredundant
c 
c [ 79.41  0 45 40 28583  2 519123 65046 2.2 40 18 2 7 24% 306893 56799 98%
c i 80.65  0 45 40 28589  2 527093 72765 2.2 39 18 2 7 24% 306893 56798 98%
c - 80.77  0 45 41 28589  2 527568 51189 2.2 39 18 2 7 24% 306887 56798 98%
c I 80.82  0 45 41 28589  2 528055 51652 2.2 39 18 2 7 24% 306887 56798 98%
c - 85.11  0 45 42 28598  2 554569 51522 2.2 40 18 2 8 25% 306887 56798 98%
c B 86.01  0 44 42 28598  2 561056 57840 2.3 40 18 2 8 25% 306887 56798 98%
c - 89.36  0 46 43 28606  2 582252 50395 2.2 41 18 2 8 26% 306887 56798 98%
c W 92.35  0 47 43 28613  2 595057 62856 2.2 42 19 2 8 27% 306887 56798 98%
c ] 92.88  0 47 43 28613  2 598050 65744 2.2 42 19 2 8 27% 306887 56798 98%
c { 92.88  0 86 43 28613 11 598050 65744 2.0 14 7 1 2 27% 306887 56798 98%
c i 94.70  0 86 43 29313 11 607951 74860 2.0 14 7 1 2 27% 306887 56797 98%
c - 95.28  0 86 44 29562 11 610617 52452 2.0 14 7 1 2 27% 306881 56797 98%
c W 99.12  0 85 44 31256 10 630059 70454 2.0 14 7 1 2 27% 306881 56797 98%
c - 101.27  0 85 45 32124 10 639665 56111 2.0 14 7 1 2 27% 306881 56797 98%
c # 106.24  0 84 45 34464 10 666060 80728 2.0 14 7 1 2 27% 306881 56797 98%
c - 106.96  0 84 46 34756 10 669395 59946 2.0 14 7 1 2 27% 306881 56797 98%
c } 110.20  0 84 46 36098 10 686891 76331 2.1 15 7 1 2 27% 306881 56797 98%
c [ 110.20  0 47 46 36098  2 686891 76331 2.2 42 19 2 8 27% 306881 56797 98%
c - 112.41  0 48 47 36104  2 699810 62760 2.2 42 19 2 8 26% 306881 56797 98%
c O 113.11  0 48 47 36105  2 703061 65952 2.2 42 19 2 8 26% 306881 56797 98%
c 
c  seconds   reductions    conflicts         size   tier2        variables
c          MB      restarts       redundant     glue   trail          remaining
c           level        rate          size/glue  tier1  irredundant
c 
c - 117.56  0 45 48 36114  2 730907 63062 2.2 40 18 2 8 26% 306881 56797 98%
c B 119.36  0 44 48 36114  2 741064 72986 2.1 39 18 2 8 25% 306881 56797 98%
c - 123.74  0 48 49 36115  2 762688 62173 2.1 41 20 2 8 26% 306881 56797 98%
c ] 125.52  0 49 49 36115  2 770894 70157 2.1 42 20 2 8 26% 306881 56797 98%
c { 125.52  0 84 49 36115 10 770894 70157 2.1 15 7 1 2 27% 306881 56797 98%
c B 127.29  0 83 49 36862 10 780065 78749 2.1 15 7 1 2 27% 306881 56797 98%
c - 130.65  0 83 50 38294 10 795153 65011 2.1 15 7 1 2 27% 306881 56797 98%
c W 136.76  0 84 50 40495 10 820066 88230 2.1 15 7 1 2 27% 306881 56797 98%
c - 138.64  0 84 51 41219 10 828300 69252 2.1 15 7 1 2 27% 306881 56797 98%
c F 145.07  0 83 51 44182 10 861067 99845 2.1 15 7 1 2 27% 306881 56797 98%
c - 145.36  0 83 52 44324 10 862132 72753 2.1 15 7 1 2 27% 306881 56797 98%
c } 146.62  0 83 52 44957 10 868349 78567 2.1 15 7 1 2 27% 306881 56797 98%
c [ 146.62  0 49 52 44957  2 868349 78567 2.1 42 20 2 8 26% 306881 56797 98%
c - 151.12  0 46 53 44958  2 896647 74446 2.2 42 19 2 8 25% 306881 56797 98%
c W 152.49  0 46 53 44958  2 903069 80713 2.2 41 19 2 8 25% 306881 56797 98%
c - 156.88  0 44 54 44958  2 931847 73458 2.2 42 19 2 7 25% 306881 56797 98%
c I 159.16  0 45 54 44963  2 946070 87342 2.2 42 19 2 7 25% 306881 56797 98%
c - 163.04  0 47 55 44973  2 967733 73658 2.2 42 19 2 7 26% 306881 56797 98%
c ] 165.01  0 47 55 44978  2 979888 85509 2.3 43 19 2 7 27% 306881 56797 98%
c { 165.01  0 83 55 44978 10 979888 85509 2.1 15 7 1 2 27% 306881 56797 98%
c 
c  seconds   reductions    conflicts         size  tier2        variables
c          MB      restarts       redundant     glue  trail          remaining
c           level        rate          size/glue tier1  irredundant
c 
c B 166.89  0 83 55 45779 10 990072 95050 2.1 15 7 1 2 27% 306881 56797 98%
c - 169.74  0 83 56 46995 10 1004302 76827 2.1 15 7 1 2 27% 306881 56797 98%
c W 176.13  0 82 56 49287  9 1035075 105613 2.1 15 7 1 2 27% 306881 56797 98%
c - 177.61  0 82 57 49892  9 1041555 81278 2.1 15 7 1 2 27% 306881 56797 98%
c } 179.89  0 81 57 50826  9 1053843 92799 2.1 15 7 1 2 27% 306881 56797 98%
c ? 179.89  0 81 57 50826  9 1053843 92799 2.1 15 7 1 2 27% 306881 56797 98%
c 
c --- [ result ] -------------------------------------------------------------
c 
c writing result to '/private/tmp/p97-ordinal-sharesFirstAtTarget.sol'
c 
c --- [ run-time profiling ] -------------------------------------------------
c 
c process time taken by individual solving procedures
c (percentage relative to process time for solving)
c 
c       179.83  100.00% search
c        96.71   53.78% unstable
c        77.64   43.17% stable
c         5.48    3.05% walk
c         0.06    0.03% parse
c         0.00    0.00% lucky
c         0.00    0.00% simplify
c   =================================
c       179.83   99.97% solve
c 
c last line shows process time for solving
c (percentage relative to total process time)
c 
c --- [ statistics ] ---------------------------------------------------------
c 
c chronological:            468127        44.42 %  of conflicts
c conflicts:               1053843      5860.06    per second
c decisions:               6595329     36674.36    per second
c fixed:                      1251         2.16 %  of all variables
c learned:                  999228        94.82 %  per conflict
c learned_lits:           36747814       100.00 %  learned literals
c minimized:                     0         0.00 %  learned literals
c shrunken:                5045429        13.73 %  learned literals
c minishrunken:            4392063        11.95 %  learned literals
c otfs:                      16224         1.54 %  of conflict
c propagations:         2189727531        12.18 M  per second
c reduced:                  906102        85.98 %  per conflict
c rephased:                     45     23418.73    interval
c restarts:                  50826        20.73    interval
c stabilizing:                  12        48.35 %  of conflicts
c subsumed:                    438         0.03 %  of all clauses
c strengthened:              16005         1.22 %  of all clauses
c ticks:               10898180103         4.98    propagation
c walked:                       14     75274.50    interval
c 
c seconds are measured in process time for solving
c 
c --- [ glue usage ] ---------------------------------------------------------
c 
c focused glue 1 used 1088828 clauses 63.74% accumulated 63.74% tier1
c focused glue 2 used 284193 clauses 16.63% accumulated 80.38% tier2
c 
c stable glue 2 used 543809 clauses 13.10% accumulated 55.52% tier1
c stable glue 3 used 230169 clauses 5.548% accumulated 61.07%
c stable glue 4-5 used 399025 clauses 9.618% accumulated 70.69%
c stable glue 6 used 141392 clauses 3.408% accumulated 74.10%
c stable glue 7 used 120161 clauses 2.896% accumulated 76.99% tier2
c 
c 
c --- [ resources ] ----------------------------------------------------------
c 
c total process time since initialization:       179.89    seconds
c total real time since initialization:          180.01    seconds
c maximum resident set size of process:       333312.00    MB
c 
c --- [ shutting down ] ------------------------------------------------------
c 
c exit 0
